c colouring generated by benchmark framework
p edge 138 493
v 1 8
v 2 6
v 3 9
v 4 7
v 5 7
v 6 1
v 7 10
v 8 7
v 9 6
v 10 9
v 11 3
v 12 0
v 13 7
v 14 9
v 15 9
v 16 1
v 17 10
v 18 0
v 19 9
v 20 3
v 21 7
v 22 8
v 23 1
v 24 6
v 25 6
v 26 7
v 27 1
v 28 1
v 29 7
v 30 0
v 31 2
v 32 2
v 33 4
v 34 0
v 35 4
v 36 6
v 37 10
v 38 6
v 39 7
v 40 6
v 41 7
v 42 8
v 43 9
v 44 1
v 45 7
v 46 9
v 47 4
v 48 2
v 49 1
v 50 3
v 51 10
v 52 9
v 53 9
v 54 5
v 55 4
v 56 2
v 57 8
v 58 6
v 59 10
v 60 6
v 61 8
v 62 8
v 63 7
v 64 3
v 65 0
v 66 5
v 67 1
v 68 4
v 69 2
v 70 6
v 71 8
v 72 9
v 73 3
v 74 5
v 75 8
v 76 5
v 77 0
v 78 6
v 79 2
v 80 5
v 81 1
v 82 0
v 83 3
v 84 0
v 85 3
v 86 9
v 87 8
v 88 1
v 89 1
v 90 1
v 91 7
v 92 9
v 93 7
v 94 5
v 95 1
v 96 9
v 97 4
v 98 3
v 99 9
v 100 2
v 101 1
v 102 1
v 103 8
v 104 7
v 105 3
v 106 5
v 107 6
v 108 10
v 109 2
v 110 7
v 111 10
v 112 1
v 113 1
v 114 1
v 115 0
v 116 3
v 117 9
v 118 1
v 119 6
v 120 0
v 121 6
v 122 0
v 123 7
v 124 6
v 125 0
v 126 4
v 127 1
v 128 9
v 129 5
v 130 8
v 131 2
v 132 4
v 133 0
v 134 1
v 135 8
v 136 4
v 137 5
v 138 2
